\* Source Pyomo model name=MASTER *\

min 
x1:
+0.33333333999999998 x38
+0.33333333999999998 x39
+0.33333332999999998 x64
+0.33333332999999998 x65
+0.33333332999999998 x90
+0.33333332999999998 x91

s.t.

c_e_x2_:
+1 x11
-1 x52
= 0

c_e_x3_:
+1 x11
-1 x26
= 0

c_e_x4_:
+1 x11
-1 x78
= 0

c_e_x5_:
+1 x12
-1 x53
= 0

c_e_x6_:
+1 x12
-1 x27
= 0

c_e_x7_:
+1 x12
-1 x79
= 0

c_e_x8_:
+1 x13
-1 x54
= 0

c_e_x9_:
+1 x13
-1 x28
= 0

c_e_x10_:
+1 x13
-1 x80
= 0

c_u_x14_:
+1 x26
+1 x27
+1 x28
<= 500

c_l_x15_:
+3 x26
-1 x29
-1 x32
+1 x35
>= 240

c_l_x16_:
+20 x27
-1 x30
-1 x33
+1 x36
>= 0

c_l_x17_:
+2.5 x28
-1 x31
-1 x34
+1 x37
>= 200

c_u_x18_:
-3 x26
+1 x29
+1 x32
<= 0

c_u_x19_:
-20 x27
+1 x30
+1 x33
<= 0

c_u_x20_:
-2.5 x28
+1 x31
+1 x34
<= 0

r_l_x21_:
+1 x29
>= 0

r_u_x21_:
+1 x29
<= 100000

r_l_x22_:
+1 x30
>= 0

r_u_x22_:
+1 x30
<= 6000

r_l_x23_:
+1 x31
>= 0

r_u_x23_:
+1 x31
<= 100000

c_e_x24_:
-230 x26
-260 x27
-150 x28
+1 x38
= 0

c_e_x25_:
+150 x29
+36 x30
+170 x31
+10 x33
-210 x35
-100000 x36
-238 x37
+1 x39
= 0

c_u_x40_:
+1 x52
+1 x53
+1 x54
<= 500

c_l_x41_:
+2.3999999999999999 x52
-1 x55
-1 x58
+1 x61
>= 240

c_l_x42_:
+16 x53
-1 x56
-1 x59
+1 x62
>= 0

c_l_x43_:
+2 x54
-1 x57
-1 x60
+1 x63
>= 200

c_u_x44_:
-2.3999999999999999 x52
+1 x55
+1 x58
<= 0

c_u_x45_:
-16 x53
+1 x56
+1 x59
<= 0

c_u_x46_:
-2 x54
+1 x57
+1 x60
<= 0

r_l_x47_:
+1 x55
>= 0

r_u_x47_:
+1 x55
<= 100000

r_l_x48_:
+1 x56
>= 0

r_u_x48_:
+1 x56
<= 6000

r_l_x49_:
+1 x57
>= 0

r_u_x49_:
+1 x57
<= 100000

c_e_x50_:
-230 x52
-260 x53
-150 x54
+1 x64
= 0

c_e_x51_:
+150 x55
+36 x56
+170 x57
+10 x59
-210 x61
-100000 x62
-238 x63
+1 x65
= 0

c_u_x66_:
+1 x78
+1 x79
+1 x80
<= 500

c_l_x67_:
+3.6000000000000001 x78
-1 x81
-1 x84
+1 x87
>= 240

c_l_x68_:
+24 x79
-1 x82
-1 x85
+1 x88
>= 0

c_l_x69_:
+3 x80
-1 x83
-1 x86
+1 x89
>= 200

c_u_x70_:
-3.6000000000000001 x78
+1 x81
+1 x84
<= 0

c_u_x71_:
-24 x79
+1 x82
+1 x85
<= 0

c_u_x72_:
-3 x80
+1 x83
+1 x86
<= 0

r_l_x73_:
+1 x81
>= 0

r_u_x73_:
+1 x81
<= 100000

r_l_x74_:
+1 x82
>= 0

r_u_x74_:
+1 x82
<= 6000

r_l_x75_:
+1 x83
>= 0

r_u_x75_:
+1 x83
<= 100000

c_e_x76_:
-230 x78
-260 x79
-150 x80
+1 x90
= 0

c_e_x77_:
+150 x81
+36 x82
+170 x83
+10 x85
-210 x87
-100000 x88
-238 x89
+1 x91
= 0

c_e_ONE_VAR_CONSTANT: 
ONE_VAR_CONSTANT = 1.0

bounds 
    -inf <= x11 <= +inf
    -inf <= x12 <= +inf
    -inf <= x13 <= +inf
   0 <= x26 <= 500
   0 <= x27 <= 500
   0 <= x28 <= 500
   0 <= x29 <= +inf
   0 <= x30 <= +inf
   0 <= x31 <= +inf
   0 <= x32 <= +inf
   0 <= x33 <= +inf
   0 <= x34 <= +inf
   0 <= x35 <= +inf
   0 <= x36 <= +inf
   0 <= x37 <= +inf
    -inf <= x38 <= +inf
    -inf <= x39 <= +inf
   0 <= x52 <= 500
   0 <= x53 <= 500
   0 <= x54 <= 500
   0 <= x55 <= +inf
   0 <= x56 <= +inf
   0 <= x57 <= +inf
   0 <= x58 <= +inf
   0 <= x59 <= +inf
   0 <= x60 <= +inf
   0 <= x61 <= +inf
   0 <= x62 <= +inf
   0 <= x63 <= +inf
    -inf <= x64 <= +inf
    -inf <= x65 <= +inf
   0 <= x78 <= 500
   0 <= x79 <= 500
   0 <= x80 <= 500
   0 <= x81 <= +inf
   0 <= x82 <= +inf
   0 <= x83 <= +inf
   0 <= x84 <= +inf
   0 <= x85 <= +inf
   0 <= x86 <= +inf
   0 <= x87 <= +inf
   0 <= x88 <= +inf
   0 <= x89 <= +inf
    -inf <= x90 <= +inf
    -inf <= x91 <= +inf
end 
